0 4893.22
1 4893.22
2 4857.69
3 4857.69
4 4857.69
5 4857.69
6 4857.69
7 4857.69
8 4857.69
9 4857.69
10 4857.69
11 4857.69
12 4857.69
13 4857.69
14 4857.69
15 4853.35
16 4853.35
17 4853.35
18 4853.35
19 4853.35
20 4837.75
21 4837.75
22 4837.75
23 4837.75
24 4837.75
25 4837.75
26 4837.75
27 4837.75
28 4827.22
29 4827.22
30 4827.22
31 4797.94
32 4797.94
33 4797.94
34 4797.94
35 4797.94
36 4797.94
37 4797.94
38 4797.94
39 4797.94
40 4797.94
41 4797.94
42 4797.94
43 4797.94
44 4797.94
45 4797.94
46 4797.94
47 4797.94
48 4797.94
49 4797.52
50 4797.52
51 4797.52
52 4797.52
53 4797.52
54 4797.52
55 4797.52
56 4797.52
57 4788.20
58 4788.20
59 4788.20
60 4788.20
61 4788.20
62 4788.20
63 4788.20
64 4788.20
65 4779.35
66 4779.35
67 4779.35
68 4779.35
69 4779.35
70 4779.35
71 4779.35
72 4779.35
73 4779.35
74 4779.35
75 4779.35
76 4779.35
77 4779.35
78 4779.35
79 4751.37
80 4751.37
81 4751.37
82 4751.37
83 4751.37
84 4721.07
85 4721.07
86 4721.07
87 4721.07
88 4721.07
89 4721.07
90 4721.07
91 4721.07
92 4721.07
93 4721.07
94 4721.07
95 4721.07
96 4721.07
97 4721.07
98 4721.07
99 4721.07
100 4721.07
101 4721.07
102 4721.07
103 4721.07
104 4721.07
105 4721.07
106 4721.07
107 4721.07
108 4721.07
109 4721.07
110 4714.75
111 4714.75
112 4714.75
113 4711.69
114 4700.02
115 4700.02
116 4700.02
117 4700.02
118 4700.02
119 4700.02
120 4700.02
121 4700.02
122 4700.02
123 4700.02
124 4700.02
125 4700.02
126 4700.02
127 4700.02
128 4700.02
129 4700.02
130 4700.02
131 4695.36
132 4695.36
133 4695.36
134 4695.36
135 4695.36
136 4695.36
137 4695.36
138 4695.36
139 4695.36
140 4695.36
141 4695.36
142 4695.36
143 4695.36
144 4695.36
145 4695.36
146 4695.36
147 4695.36
148 4695.36
149 4695.36
150 4695.36
151 4695.36
152 4695.36
153 4695.36
154 4695.36
155 4695.36
156 4695.36
157 4695.36
158 4695.36
159 4695.36
160 4695.36
161 4695.36
162 4695.36
163 4695.36
164 4695.36
165 4695.36
166 4695.36
167 4695.36
168 4695.36
169 4695.36
170 4695.36
171 4695.36
172 4695.36
173 4695.36
174 4695.36
175 4695.36
176 4695.36
177 4695.36
178 4695.36
179 4695.36
180 4695.36
181 4695.36
182 4695.36
183 4695.36
184 4695.36
185 4695.36
186 4695.36
187 4695.36
188 4695.36
189 4695.36
190 4695.36
191 4695.36
192 4695.36
193 4674.48
194 4674.48
195 4674.48
196 4674.48
197 4674.48
198 4674.48
199 4674.48
200 4674.48
201 4674.48
202 4674.48
203 4674.48
204 4674.48
205 4674.48
206 4674.48
207 4674.48
208 4674.48
209 4673.27
210 4673.27
211 4673.27
212 4673.27
213 4673.27
214 4673.27
215 4673.27
216 4673.27
217 4654.56
218 4654.56
219 4654.56
220 4654.56
221 4654.56
222 4654.56
223 4654.56
224 4654.56
225 4654.56
226 4654.56
227 4654.56
228 4654.56
229 4654.56
230 4654.56
231 4654.56
232 4654.56
233 4654.56
234 4654.56
235 4654.56
236 4654.56
237 4654.56
238 4654.56
239 4654.56
240 4654.56
241 4654.56
242 4654.56
243 4654.56
244 4654.56
245 4654.56
246 4654.56
247 4654.56
248 4654.56
249 4654.56
250 4654.56
251 4654.56
252 4654.56
253 4654.56
254 4654.56
255 4654.56
256 4654.56
257 4654.56
258 4654.56
259 4654.56
260 4654.56
261 4654.56
262 4654.56
263 4654.56
264 4654.56
265 4654.56
266 4654.56
267 4654.56
268 4654.56
269 4654.56
270 4654.56
271 4654.56
272 4654.56
273 4654.56
274 4654.56
275 4654.56
276 4654.56
277 4654.56
278 4654.56
279 4654.56
280 4654.56
281 4654.56
282 4654.56
283 4654.56
284 4654.56
285 4654.56
286 4654.56
287 4654.56
288 4654.56
289 4654.56
290 4654.56
291 4654.56
292 4654.56
293 4654.56
294 4654.56
295 4654.56
296 4654.56
297 4654.56
298 4654.56
299 4654.56
300 4654.56
301 4654.56
302 4654.56
303 4654.56
304 4654.56
305 4654.56
306 4654.56
307 4654.56
308 4654.56
309 4654.56
310 4654.56
311 4654.56
312 4654.56
313 4654.56
314 4654.56
315 4654.56
316 4654.56
317 4654.56
318 4654.56
319 4654.56
320 4654.56
321 4654.56
322 4654.56
323 4654.56
324 4654.56
325 4654.56
326 4654.56
327 4654.56
328 4654.56
329 4654.56
330 4654.56
331 4654.56
332 4654.56
333 4654.56
334 4654.56
335 4654.56
336 4654.56
337 4654.56
338 4654.56
339 4654.56
340 4654.56
341 4654.56
342 4654.56
343 4654.56
344 4654.56
345 4654.56
346 4654.56
347 4654.56
348 4654.56
349 4654.56
350 4654.56
351 4654.56
352 4654.56
353 4654.56
354 4654.56
355 4654.56
356 4654.56
357 4654.56
358 4654.56
359 4654.56
360 4654.56
361 4654.56
362 4654.56
363 4654.56
364 4654.56
365 4654.56
366 4654.56
367 4654.56
368 4654.56
369 4654.56
370 4654.56
371 4654.56
372 4654.56
373 4654.56
374 4654.56
375 4654.56
376 4654.56
377 4654.56
378 4654.56
379 4654.56
380 4654.56
381 4654.56
382 4654.56
383 4654.56
384 4654.56
385 4654.56
386 4654.56
387 4654.56
388 4654.56
389 4654.56
390 4654.56
391 4654.56
392 4654.56
393 4654.56
394 4654.56
395 4654.56
396 4654.56
397 4654.56
398 4654.56
399 4654.56
400 4654.56
401 4654.56
402 4654.56
403 4654.56
404 4654.56
405 4654.56
406 4654.56
407 4654.56
408 4654.56
409 4654.56
410 4654.56
411 4654.56
412 4654.56
413 4654.56
414 4654.56
415 4654.56
416 4654.56
417 4654.56
418 4654.56
419 4654.56
420 4654.56
421 4654.56
422 4654.56
423 4654.56
424 4654.56
425 4654.56
426 4654.56
427 4654.56
428 4654.56
429 4654.56
430 4654.56
431 4654.56
432 4654.56
433 4654.56
434 4654.56
435 4654.56
436 4654.56
437 4654.56
438 4654.56
439 4654.56
440 4654.56
441 4654.56
442 4654.56
443 4654.56
444 4654.56
445 4654.56
446 4654.56
447 4654.56
448 4654.56
449 4654.56
450 4654.56
451 4654.56
452 4654.56
453 4654.56
454 4654.56
455 4654.56
456 4654.56
457 4654.56
458 4654.56
459 4654.56
460 4654.56
461 4654.56
462 4654.56
463 4654.56
464 4654.56
465 4654.56
466 4654.56
467 4654.56
468 4654.56
469 4654.56
470 4654.56
471 4654.56
472 4654.56
473 4654.56
474 4654.56
475 4654.56
476 4654.56
477 4654.56
478 4654.56
479 4654.56
480 4654.56
481 4654.56
482 4654.56
483 4654.56
484 4654.56
485 4654.56
486 4654.56
487 4654.56
488 4654.56
489 4654.56
490 4654.56
491 4654.56
492 4654.56
493 4654.56
494 4654.56
495 4654.56
496 4654.56
497 4654.56
498 4654.56
499 4654.56
2 6 10 3 0 0 